%
% Generated Sudoku 16x16
% Density approximation: 0.30
%
x = array2d(1..n, 1..n, [
   _,   _,   _,   _,   _,   _,  15,   _,   _,   _,   _,   _,   _,   _,   _,   _,
  10,  13,   _,   _,   _,   _,   3,   _,   _,   _,  12,   _,   5,   _,   _,   4,
  15,   _,   3,   _,   _,   _,   _,   _,   _,   _,   _,  16,   _,   8,   7,  12,
   _,   _,   7,   _,   _,   _,   _,  12,   3,   _,   _,   _,   _,   _,  16,   _,
  11,   _,   _,  10,  15,   _,   _,   _,  16,   _,   _,  12,   _,   9,   _,   _,
  13,   _,   _,  12,   _,   _,  16,   7,   _,   _,   _,   _,   3,   _,   _,   _,
   7,   _,   _,  16,   _,  10,   _,   5,   _,   2,   _,  11,   _,   _,  14,   6,
   _,   _,   _,   _,   _,   3,   _,   _,   _,   _,   1,   5,   _,  10,   _,   _,
   _,   _,   _,   _,   7,   _,   9,   _,   _,  13,   _,   _,   2,   _,   _,   _,
   4,   _,   _,   _,   _,  12,   _,   3,   1,   _,   _,   _,   8,   _,   6,   _,
   _,   _,   _,   _,   _,   _,   _,   _,   _,  16,  10,   _,   _,   _,   _,   3,
   _,   5,   _,   _,   _,   _,   4,   _,   _,   _,   _,   _,   _,   _,   _,   _,
   _,  12,  11,   _,   _,   _,   _,   _,   _,   1,   _,   6,  15,  14,   _,   2,
   3,   _,   _,   _,   _,  15,   5,   _,   _,  11,   _,   _,   6,   _,   _,   _,
   6,   _,   _,   _,   _,   _,   _,  14,  10,   _,   4,   _,   _,   _,   _,   _,
  16,   _,   _,   _,   3,   6,   7,   _,   5,   _,  15,   _,   _,   _,   _,   _
]);

n = 16;
